Traveling Salesman Problem/TSP_generados/Aleatorio1620390980_11.tsp
NAME: Aleatorio1620390980_11.tsp
COMMENT: Randomly generated scenario
TYPE: TSP
DIMENSION: 11
EDGE_WEIGHT_TYPE: ATT
NODE_COORD_SECTION
1 14.43 43.39
2 24.28 43.57
3 26.24 13.94
4 49.38 21.05
5 41.72 15.98
6 15.73 22.64
7 46.46 27.51
8 32.31 12.01
9 15.64 16.13
10 38.97 33.74
11 36.48 48.29
