Traveling Salesman Problem/TSP_generados/Aleatorio1620390980_11.opt.tour
NAME: Aleatorio1620390980_11.opt.tour
COMMENT: Optimal solution for Aleatorio1620390980_11 (118.41968863515112)
TYPE: TOUR
DIMENSION: 11
TOUR_SECTION
1 6 9 3 8 5 4 7 10 11 2
-1
EOF
